instance4
30
0.43
0.73
0.05
0.65
0.4
0.36
0.5
0.02
0.99
0.77
0.36
0.37
0.15
0.18
0.64
0.4
0.87
0.08
0.2
0.96
0.62
0.53
0.82
0.95
0.55
0.8
0.55
0.23
0.01
0.3





































